1, 15, 52, 53, 22, 30, 21, 27, 28, 29, 23, 31, 26, 17, 1
1, 19, 10, 11, 40, 41, 38, 20, 1
1, 14, 16, 4, 6, 5, 9, 12, 13, 8, 7, 3, 2, 18, 1
1, 36, 32, 24, 25, 44, 37, 47, 45, 46, 48, 49, 50, 51, 43, 42, 39, 35, 34, 33, 1
